InboundTrucks  = 40;
OutboundTrucks = 20;
ReleaseTime    = [15,36,1,34,32,12,17,80,30,39,35,30,109,14,28,86,17,19,36,8,80,60,6,35,64,30,11,18,26,39,35,105,30,0,13,4,3,34,78,30];
UnloadTime     = [1,5,8,3,4,9,3,4,9,3,12,8,11,3,10,1,10,1,11,6,6,8,5,2,7,8,3,3,3,6,9,3,3,2,10,12,8,10,5,3];
LoadTime       = [11,2,12,2,11,3,4,11,5,9,12,12,5,9,12,1,6,5,6,1];
TransferTime   = [| 1,0,0,0,2,0,0,0,0,1,2,1,0,0,0,1,2,0,2,1 | 0,2,0,1,2,0,0,0,0,2,1,2,0,0,2,0,2,0,2,0 | 1,0,0,0,1,0,0,0,0,0,1,1,0,1,0,0,1,0,0,1 | 0,0,0,0,0,2,0,0,0,1,0,0,2,0,0,1,2,1,0,0 | 0,0,1,2,1,2,0,2,1,1,0,2,0,1,0,0,0,0,0,2 | 0,0,0,1,0,0,0,0,0,0,1,0,2,0,0,0,0,1,1,1 | 0,0,0,0,2,1,0,0,0,0,0,0,0,0,0,1,0,1,0,0 | 0,0,1,1,0,0,1,0,2,0,0,0,0,0,2,0,0,1,2,0 | 4,0,0,0,0,0,3,0,1,0,0,0,4,0,0,0,0,0,4,4 | 0,0,0,0,5,0,0,0,0,0,2,3,0,0,1,0,5,0,4,1 | 0,0,2,0,0,0,0,0,0,0,0,4,4,0,0,0,5,2,0,0 | 1,5,0,0,3,3,0,4,0,0,3,0,5,0,0,0,0,0,3,0 | 3,0,0,0,1,0,0,0,0,0,1,1,0,0,1,0,0,4,0,0 | 0,3,0,5,4,1,0,0,0,1,1,2,0,2,0,0,0,0,0,0 | 0,0,0,0,3,0,1,0,4,0,0,0,0,0,0,2,5,0,0,0 | 2,0,2,1,0,0,0,0,0,0,0,0,0,0,0,0,4,1,0,0 | 0,1,0,5,5,5,1,0,4,0,0,0,1,0,0,5,0,0,0,5 | 0,0,0,0,0,0,2,3,0,0,5,0,0,0,0,0,0,0,0,0 | 4,0,2,4,1,0,1,5,0,0,0,0,0,0,0,0,0,0,4,5 | 4,0,0,0,3,0,5,0,1,0,0,0,0,0,4,0,0,0,0,5 | 0,3,0,0,0,0,0,5,0,0,1,0,0,0,0,4,5,5,0,0 | 0,0,0,0,0,0,0,5,5,2,5,0,0,1,2,0,0,0,4,0 | 2,0,0,0,0,0,0,0,0,0,0,0,5,0,0,4,2,0,0,3 | 1,5,0,2,0,3,0,0,0,0,0,2,3,2,0,0,0,4,0,0 | 0,0,4,3,2,0,5,0,0,0,1,0,0,0,4,0,0,0,0,0 | 0,0,4,0,0,0,0,0,0,0,3,0,0,0,2,0,0,0,0,3 | 0,0,0,0,0,0,0,0,0,0,2,2,5,0,0,0,0,0,0,0 | 1,4,5,3,0,5,0,0,5,3,0,0,0,5,5,2,0,0,0,0 | 0,0,0,0,4,4,5,0,0,0,0,0,0,0,0,0,0,0,4,0 | 4,1,1,4,3,0,0,0,0,0,1,0,0,3,4,0,3,0,0,0 | 0,0,0,0,0,4,0,0,2,3,1,0,0,0,0,0,0,0,4,0 | 0,0,0,2,3,5,0,3,1,3,0,0,5,0,3,0,3,2,0,0 | 0,0,0,0,3,2,0,5,0,3,0,2,1,4,0,0,0,0,2,0 | 0,0,0,0,0,0,4,0,0,4,0,0,0,0,0,1,0,0,0,0 | 0,0,0,0,1,0,0,0,2,0,0,1,0,0,0,0,3,4,1,0 | 0,0,4,0,5,0,1,0,0,2,0,0,0,0,0,0,0,0,0,2 | 0,0,0,0,0,0,0,0,1,0,0,2,0,0,3,2,0,2,0,0 | 0,0,2,0,0,0,0,0,0,1,0,4,5,0,0,0,0,5,5,0 | 0,0,0,5,1,0,1,4,0,3,0,1,0,0,0,0,0,0,0,0 | 1,0,0,0,0,2,1,1,4,0,0,5,0,0,0,2,3,0,0,0 |];
